32      4       
17      18      15      12      
0       0       0       0       0       1       2       
10      0       0       15      11      1       3       
2       4       0       0       1       1       4       
8       15      8       0       0       2       8       5       
1       0       0       7       4       1       6       
10      0       5       0       2       1       7       
5       0       12      5       0       1       9       
1       10      0       5       0       1       9       
9       13      4       0       0       2       15      10      
8       0       4       1       0       1       11      
4       11      0       6       0       2       25      12      
3       0       0       14      2       1       13      
3       6       0       1       0       1       14      
5       6       0       0       12      1       16      
1       0       0       4       5       1       16      
9       0       8       0       6       1       17      
3       10      0       0       11      2       23      18      
1       11      0       0       7       2       20      19      
9       0       1       15      0       1       21      
6       0       18      1       0       1       21      
9       1       1       0       0       1       22      
7       0       7       0       1       1       24      
5       0       6       1       0       1       24      
5       0       11      0       1       2       27      26      
8       1       4       0       0       2       27      26      
9       0       0       3       1       1       28      
3       1       0       0       6       1       28      
6       4       0       0       2       1       29      
4       4       15      0       0       1       30      
7       0       4       4       0       1       31      
5       5       0       8       0       1       32      
0       0       0       0       0       0       
